TCS_Benchmarks/redos_fix/regexlib1_output_distinct_3031_3030_0_0.smt2
(set-logic QF_S)
(declare-const x String)
(assert (str.in.re x (re.inter (re.+  (re.++  (re.union (str.to_re "") (re.union  (re.++  (str.to.re "\u{20}")  (str.to_re ""))  (re.++  (str.to.re "\u{20}")   (re.++  (str.to.re "\u{20}")  (str.to_re "")))))  (re.union   (re.union  (str.to.re "\u{2d}") (re.union (re.range "\u{30}" "\u{39}")  (str.to.re "\u{2c}"))) (re.union  (re.++  (re.union  (str.to.re "\u{2d}") (re.union (re.range "\u{30}" "\u{39}")  (str.to.re "\u{2c}")))    (re.union  (str.to.re "\u{2d}") (re.union (re.range "\u{30}" "\u{39}")  (str.to.re "\u{2c}")))) (re.union  (re.++  (re.union  (str.to.re "\u{2d}") (re.union (re.range "\u{30}" "\u{39}")  (str.to.re "\u{2c}")))   (re.++  (re.union  (str.to.re "\u{2d}") (re.union (re.range "\u{30}" "\u{39}")  (str.to.re "\u{2c}")))    (re.union  (str.to.re "\u{2d}") (re.union (re.range "\u{30}" "\u{39}")  (str.to.re "\u{2c}"))))) (re.union  (re.++  (re.union  (str.to.re "\u{2d}") (re.union (re.range "\u{30}" "\u{39}")  (str.to.re "\u{2c}")))   (re.++  (re.union  (str.to.re "\u{2d}") (re.union (re.range "\u{30}" "\u{39}")  (str.to.re "\u{2c}")))   (re.++  (re.union  (str.to.re "\u{2d}") (re.union (re.range "\u{30}" "\u{39}")  (str.to.re "\u{2c}")))    (re.union  (str.to.re "\u{2d}") (re.union (re.range "\u{30}" "\u{39}")  (str.to.re "\u{2c}")))))) (re.union  (re.++  (re.union  (str.to.re "\u{2d}") (re.union (re.range "\u{30}" "\u{39}")  (str.to.re "\u{2c}")))   (re.++  (re.union  (str.to.re "\u{2d}") (re.union (re.range "\u{30}" "\u{39}")  (str.to.re "\u{2c}")))   (re.++  (re.union  (str.to.re "\u{2d}") (re.union (re.range "\u{30}" "\u{39}")  (str.to.re "\u{2c}")))   (re.++  (re.union  (str.to.re "\u{2d}") (re.union (re.range "\u{30}" "\u{39}")  (str.to.re "\u{2c}")))    (re.union  (str.to.re "\u{2d}") (re.union (re.range "\u{30}" "\u{39}")  (str.to.re "\u{2c}"))))))) (re.union  (re.++  (re.union  (str.to.re "\u{2d}") (re.union (re.range "\u{30}" "\u{39}")  (str.to.re "\u{2c}")))   (re.++  (re.union  (str.to.re "\u{2d}") (re.union (re.range "\u{30}" "\u{39}")  (str.to.re "\u{2c}")))   (re.++  (re.union  (str.to.re "\u{2d}") (re.union (re.range "\u{30}" "\u{39}")  (str.to.re "\u{2c}")))   (re.++  (re.union  (str.to.re "\u{2d}") (re.union (re.range "\u{30}" "\u{39}")  (str.to.re "\u{2c}")))   (re.++  (re.union  (str.to.re "\u{2d}") (re.union (re.range "\u{30}" "\u{39}")  (str.to.re "\u{2c}")))    (re.union  (str.to.re "\u{2d}") (re.union (re.range "\u{30}" "\u{39}")  (str.to.re "\u{2c}"))))))))  (re.++  (re.union  (str.to.re "\u{2d}") (re.union (re.range "\u{30}" "\u{39}")  (str.to.re "\u{2c}")))   (re.++  (re.union  (str.to.re "\u{2d}") (re.union (re.range "\u{30}" "\u{39}")  (str.to.re "\u{2c}")))   (re.++  (re.union  (str.to.re "\u{2d}") (re.union (re.range "\u{30}" "\u{39}")  (str.to.re "\u{2c}")))   (re.++  (re.union  (str.to.re "\u{2d}") (re.union (re.range "\u{30}" "\u{39}")  (str.to.re "\u{2c}")))   (re.++  (re.union  (str.to.re "\u{2d}") (re.union (re.range "\u{30}" "\u{39}")  (str.to.re "\u{2c}")))   (re.++  (re.union  (str.to.re "\u{2d}") (re.union (re.range "\u{30}" "\u{39}")  (str.to.re "\u{2c}")))    (re.union  (str.to.re "\u{2d}") (re.union (re.range "\u{30}" "\u{39}")  (str.to.re "\u{2c}")))))))))))))))) )  (re.union   (re.union  (str.to.re "\u{2d}") (re.union (re.range "\u{30}" "\u{39}")  (str.to.re "\u{2c}"))) (re.union  (re.++  (re.union  (str.to.re "\u{2d}") (re.union (re.range "\u{30}" "\u{39}")  (str.to.re "\u{2c}")))    (re.union  (str.to.re "\u{2d}") (re.union (re.range "\u{30}" "\u{39}")  (str.to.re "\u{2c}")))) (re.union  (re.++  (re.union  (str.to.re "\u{2d}") (re.union (re.range "\u{30}" "\u{39}")  (str.to.re "\u{2c}")))   (re.++  (re.union  (str.to.re "\u{2d}") (re.union (re.range "\u{30}" "\u{39}")  (str.to.re "\u{2c}")))    (re.union  (str.to.re "\u{2d}") (re.union (re.range "\u{30}" "\u{39}")  (str.to.re "\u{2c}"))))) (re.union  (re.++  (re.union  (str.to.re "\u{2d}") (re.union (re.range "\u{30}" "\u{39}")  (str.to.re "\u{2c}")))   (re.++  (re.union  (str.to.re "\u{2d}") (re.union (re.range "\u{30}" "\u{39}")  (str.to.re "\u{2c}")))   (re.++  (re.union  (str.to.re "\u{2d}") (re.union (re.range "\u{30}" "\u{39}")  (str.to.re "\u{2c}")))    (re.union  (str.to.re "\u{2d}") (re.union (re.range "\u{30}" "\u{39}")  (str.to.re "\u{2c}")))))) (re.union  (re.++  (re.union  (str.to.re "\u{2d}") (re.union (re.range "\u{30}" "\u{39}")  (str.to.re "\u{2c}")))   (re.++  (re.union  (str.to.re "\u{2d}") (re.union (re.range "\u{30}" "\u{39}")  (str.to.re "\u{2c}")))   (re.++  (re.union  (str.to.re "\u{2d}") (re.union (re.range "\u{30}" "\u{39}")  (str.to.re "\u{2c}")))   (re.++  (re.union  (str.to.re "\u{2d}") (re.union (re.range "\u{30}" "\u{39}")  (str.to.re "\u{2c}")))    (re.union  (str.to.re "\u{2d}") (re.union (re.range "\u{30}" "\u{39}")  (str.to.re "\u{2c}"))))))) (re.union  (re.++  (re.union  (str.to.re "\u{2d}") (re.union (re.range "\u{30}" "\u{39}")  (str.to.re "\u{2c}")))   (re.++  (re.union  (str.to.re "\u{2d}") (re.union (re.range "\u{30}" "\u{39}")  (str.to.re "\u{2c}")))   (re.++  (re.union  (str.to.re "\u{2d}") (re.union (re.range "\u{30}" "\u{39}")  (str.to.re "\u{2c}")))   (re.++  (re.union  (str.to.re "\u{2d}") (re.union (re.range "\u{30}" "\u{39}")  (str.to.re "\u{2c}")))   (re.++  (re.union  (str.to.re "\u{2d}") (re.union (re.range "\u{30}" "\u{39}")  (str.to.re "\u{2c}")))    (re.union  (str.to.re "\u{2d}") (re.union (re.range "\u{30}" "\u{39}")  (str.to.re "\u{2c}"))))))))  (re.++  (re.union  (str.to.re "\u{2d}") (re.union (re.range "\u{30}" "\u{39}")  (str.to.re "\u{2c}")))   (re.++  (re.union  (str.to.re "\u{2d}") (re.union (re.range "\u{30}" "\u{39}")  (str.to.re "\u{2c}")))   (re.++  (re.union  (str.to.re "\u{2d}") (re.union (re.range "\u{30}" "\u{39}")  (str.to.re "\u{2c}")))   (re.++  (re.union  (str.to.re "\u{2d}") (re.union (re.range "\u{30}" "\u{39}")  (str.to.re "\u{2c}")))   (re.++  (re.union  (str.to.re "\u{2d}") (re.union (re.range "\u{30}" "\u{39}")  (str.to.re "\u{2c}")))   (re.++  (re.union  (str.to.re "\u{2d}") (re.union (re.range "\u{30}" "\u{39}")  (str.to.re "\u{2c}")))    (re.union  (str.to.re "\u{2d}") (re.union (re.range "\u{30}" "\u{39}")  (str.to.re "\u{2c}"))))))))))))))) )))
(check-sat)
(get-model)