TCS_Benchmarks/redos_fix/regexlib1_output_distinct_3031_3030_0_0.txt
( {0,2}[\-\d,]{1,7})+
[\-\d,]{1,7}